<?xml version = "1.0" standalone="yes"?>
<!-- This file has been generated by DOcplex version 2.23.222  -->
<CPLEXSolution version="1.0">
 <header
   problemName="CVRP"
   objectiveValue="15880.6"
  />
 <variables>
  <variable name="x_0_4" index="3" value="1.00000"/>
  <variable name="x_0_5" index="4" value="1.00000"/>
  <variable name="x_0_7" index="6" value="1.00000"/>
  <variable name="x_0_9" index="8" value="1.00000"/>
  <variable name="x_0_10" index="9" value="1.00000"/>
  <variable name="x_0_11" index="10" value="1.00000"/>
  <variable name="x_0_12" index="11" value="1.00000"/>
  <variable name="x_0_13" index="12" value="1.00000"/>
  <variable name="x_0_16" index="15" value="1.00000"/>
  <variable name="x_0_17" index="16" value="1.00000"/>
  <variable name="x_0_18" index="17" value="1.00000"/>
  <variable name="x_0_19" index="18" value="1.00000"/>
  <variable name="x_0_20" index="19" value="1.00000"/>
  <variable name="x_0_21" index="20" value="1.00000"/>
  <variable name="x_0_22" index="21" value="1.00000"/>
  <variable name="x_1_0" index="23" value="1.00000"/>
  <variable name="x_2_0" index="46" value="1.00000"/>
  <variable name="x_3_0" index="69" value="1.00000"/>
  <variable name="x_4_0" index="92" value="1.00000"/>
  <variable name="x_5_0" index="115" value="1.00000"/>
  <variable name="x_6_0" index="138" value="1.00000"/>
  <variable name="x_7_6" index="167" value="1.00000"/>
  <variable name="x_8_0" index="184" value="1.00000"/>
  <variable name="x_9_23" index="229" value="1.00000"/>
  <variable name="x_10_14" index="243" value="1.00000"/>
  <variable name="x_11_15" index="267" value="1.00000"/>
  <variable name="x_12_3" index="279" value="1.00000"/>
  <variable name="x_13_0" index="299" value="1.00000"/>
  <variable name="x_14_0" index="322" value="1.00000"/>
  <variable name="x_15_0" index="345" value="1.00000"/>
  <variable name="x_16_2" index="370" value="1.00000"/>
  <variable name="x_17_0" index="391" value="1.00000"/>
  <variable name="x_18_0" index="414" value="1.00000"/>
  <variable name="x_19_8" index="445" value="1.00000"/>
  <variable name="x_20_0" index="460" value="1.00000"/>
  <variable name="x_21_1" index="484" value="1.00000"/>
  <variable name="x_22_0" index="506" value="1.00000"/>
  <variable name="x_23_0" index="529" value="1.00000"/>
  <variable name="u_1" index="552" value="29.00000"/>
  <variable name="u_2" index="553" value="29.00000"/>
  <variable name="u_3" index="554" value="29.00000"/>
  <variable name="u_4" index="555" value="25.00000"/>
  <variable name="u_5" index="556" value="29.00000"/>
  <variable name="u_6" index="557" value="29.00000"/>
  <variable name="u_7" index="558" value="22.00000"/>
  <variable name="u_8" index="559" value="29.00000"/>
  <variable name="u_9" index="560" value="12.00000"/>
  <variable name="u_10" index="561" value="6.00000"/>
  <variable name="u_11" index="562" value="9.00000"/>
  <variable name="u_12" index="563" value="21.00000"/>
  <variable name="u_13" index="564" value="29.00000"/>
  <variable name="u_14" index="565" value="29.00000"/>
  <variable name="u_15" index="566" value="29.00000"/>
  <variable name="u_16" index="567" value="13.00000"/>
  <variable name="u_17" index="568" value="25.00000"/>
  <variable name="u_18" index="569" value="19.00000"/>
  <variable name="u_19" index="570" value="13.00000"/>
  <variable name="u_20" index="571" value="21.00000"/>
  <variable name="u_21" index="572" value="10.00000"/>
  <variable name="u_22" index="573" value="28.00000"/>
  <variable name="u_23" index="574" value="29.00000"/>
 </variables>
</CPLEXSolution>
